100 20 100
31 27 82 31 40 47 9 55 52 79 6 97 37 73 63 9 9 54 15 18 77 38 93 89 53 13 19 34 62 93 48 93 20 82 76 61 81 85 68 34 17 74 31 54 99 94 16 8 31 26 77 21 72 66 74 85 86 60 99 31 60 45 51 42 21 64 76 59 32 10 76 58 93 30 57 39 46 18 39 29 44 68 50 68 34 77 54 72 89 5 3 50 50 7 44 24 23 72 83 56 
